c file = i-3-02-mux-02.cnf 
c cnf clauses for the 3-input mux function
c
c (xWork) 212 % B.cover.f.exh  ../xBenchm/coverBinate/tiny/i-3-02-mux-02.cnf
c 
c Hasse rank order of all solutions (feasible and unfeasible) 
c .. almost ready for plotting the Hasse graph 
c .. coord;value,isFeasible,cntNotCovered
c solutionAry(0) = {000;20,0,2}
c solutionAry(1) = {100;1,1,0} {010;11,0,1} {001;1,1,0}
c solutionAry(2) = {110;12,0,1} {101;12,0,1} {011;2,1,0}
c solutionAry(3) = {111;13,0,1}
c 
c # Output from B.cover.f.exh: 
c # Exhaustive enumeration of instance ../xBenchm/coverBinate/tiny/i-3-02-mux-02.cnf 
c # .. completed on Sat Oct 18 13:46:09 EDT 2014 
c # table below can be read in R 
c rank	cntCoord	cntFeasible	probOfFeasible
c 0	1	0 	   0
c 1	3	2 	0.6667
c 2	3	1 	0.3333
c 3	1	0 	   0
c # there are 2 valueBest solutions
c # 001;1
c # 100;1
c # 
c #	nDim	cntCoordLmt	runtimeCoord	runtimeProbe	hostID 
c #	3	8	0.000238	0.000245	brglez@triangle-Darwin-13.4.0
c 
p cnf 3 2
-1 -3 0
-2  3 0

